benchmarks/ising_models/2DLattices/SqrLattices/J_unif_-1,1/6x6_square_lattice_unif_frust.wcnf
p wcnf 96 240
w -2 0.598326 0
w 2 1.671329 0
w -3 0.542768 0
w 3 1.842408 0
w -5 0.508541 0
w 5 1.966409 0
w -6 0.707545 0
w 6 1.413337 0
w -8 2.420715 0
w 8 0.413101 0
w -9 1.787668 0
w 9 0.559388 0
w -11 0.738394 0
w 11 1.354290 0
w -12 0.498771 0
w 12 2.004930 0
w -14 0.611024 0
w 14 1.636597 0
w -15 0.405878 0
w 15 2.463793 0
w -17 0.372028 0
w 17 2.687973 0
w -19 0.436915 0
w 19 2.288772 0
w -20 1.290577 0
w 20 0.774848 0
w -22 1.349775 0
w 22 0.740864 0
w -23 2.318262 0
w 23 0.431358 0
w -25 1.286643 0
w 25 0.777216 0
w -26 1.399189 0
w 26 0.714700 0
w -28 0.751946 0
w 28 1.329882 0
w -29 0.460400 0
w 29 2.172026 0
w -31 0.601724 0
w 31 1.661892 0
w -32 0.404371 0
w 32 2.472977 0
w -34 1.346714 0
w 34 0.742548 0
w -36 2.505371 0
w 36 0.399142 0
w -37 0.461413 0
w 37 2.167254 0
w -39 0.646709 0
w 39 1.546290 0
w -40 1.520412 0
w 40 0.657717 0
w -42 0.448478 0
w 42 2.229764 0
w -43 2.212356 0
w 43 0.452007 0
w -45 1.449436 0
w 45 0.689924 0
w -46 2.247860 0
w 46 0.444868 0
w -48 0.447625 0
w 48 2.234011 0
w -49 2.148431 0
w 49 0.465456 0
w -51 2.251754 0
w 51 0.444098 0
w -53 0.499857 0
w 53 2.000573 0
w -54 0.415443 0
w 54 2.407068 0
w -56 0.911280 0
w 56 1.097358 0
w -57 0.814002 0
w 57 1.228499 0
w -59 0.459338 0
w 59 2.177047 0
w -60 0.504910 0
w 60 1.980549 0
w -62 1.645249 0
w 62 0.607811 0
w -63 1.160674 0
w 63 0.861569 0
w -65 0.929333 0
w 65 1.076041 0
w -66 1.845350 0
w 66 0.541902 0
w -68 0.381124 0
w 68 2.623821 0
w -70 0.719315 0
w 70 1.390211 0
w -71 0.375036 0
w 71 2.666409 0
w -73 1.531031 0
w 73 0.653155 0
w -74 1.775423 0
w 74 0.563246 0
w -76 1.568201 0
w 76 0.637673 0
w -77 1.060266 0
w 77 0.943159 0
w -79 2.626067 0
w 79 0.380798 0
w -80 0.475974 0
w 80 2.100953 0
w -82 0.775903 0
w 82 1.288820 0
w -83 1.538671 0
w 83 0.649911 0
w -85 0.783269 0
w 85 1.276701 0
w -87 1.651327 0
w 87 0.605573 0
w -89 0.554630 0
w 89 1.803003 0
w -91 0.609249 0
w 91 1.641365 0
w -93 0.961585 0
w 93 1.039950 0
w -95 0.919119 0
w 95 1.087998 0
2 1 4 0
2 -1 -4 0
-2 1 -4 0
-2 -1 4 0
3 1 18 0
3 -1 -18 0
-3 1 -18 0
-3 -1 18 0
5 4 7 0
5 -4 -7 0
-5 4 -7 0
-5 -4 7 0
6 4 21 0
6 -4 -21 0
-6 4 -21 0
-6 -4 21 0
8 7 10 0
8 -7 -10 0
-8 7 -10 0
-8 -7 10 0
9 7 24 0
9 -7 -24 0
-9 7 -24 0
-9 -7 24 0
11 10 13 0
11 -10 -13 0
-11 10 -13 0
-11 -10 13 0
12 10 27 0
12 -10 -27 0
-12 10 -27 0
-12 -10 27 0
14 13 16 0
14 -13 -16 0
-14 13 -16 0
-14 -13 16 0
15 13 30 0
15 -13 -30 0
-15 13 -30 0
-15 -13 30 0
17 16 33 0
17 -16 -33 0
-17 16 -33 0
-17 -16 33 0
19 18 21 0
19 -18 -21 0
-19 18 -21 0
-19 -18 21 0
20 18 35 0
20 -18 -35 0
-20 18 -35 0
-20 -18 35 0
22 21 24 0
22 -21 -24 0
-22 21 -24 0
-22 -21 24 0
23 21 38 0
23 -21 -38 0
-23 21 -38 0
-23 -21 38 0
25 24 27 0
25 -24 -27 0
-25 24 -27 0
-25 -24 27 0
26 24 41 0
26 -24 -41 0
-26 24 -41 0
-26 -24 41 0
28 27 30 0
28 -27 -30 0
-28 27 -30 0
-28 -27 30 0
29 27 44 0
29 -27 -44 0
-29 27 -44 0
-29 -27 44 0
31 30 33 0
31 -30 -33 0
-31 30 -33 0
-31 -30 33 0
32 30 47 0
32 -30 -47 0
-32 30 -47 0
-32 -30 47 0
34 33 50 0
34 -33 -50 0
-34 33 -50 0
-34 -33 50 0
36 35 38 0
36 -35 -38 0
-36 35 -38 0
-36 -35 38 0
37 35 52 0
37 -35 -52 0
-37 35 -52 0
-37 -35 52 0
39 38 41 0
39 -38 -41 0
-39 38 -41 0
-39 -38 41 0
40 38 55 0
40 -38 -55 0
-40 38 -55 0
-40 -38 55 0
42 41 44 0
42 -41 -44 0
-42 41 -44 0
-42 -41 44 0
43 41 58 0
43 -41 -58 0
-43 41 -58 0
-43 -41 58 0
45 44 47 0
45 -44 -47 0
-45 44 -47 0
-45 -44 47 0
46 44 61 0
46 -44 -61 0
-46 44 -61 0
-46 -44 61 0
48 47 50 0
48 -47 -50 0
-48 47 -50 0
-48 -47 50 0
49 47 64 0
49 -47 -64 0
-49 47 -64 0
-49 -47 64 0
51 50 67 0
51 -50 -67 0
-51 50 -67 0
-51 -50 67 0
53 52 55 0
53 -52 -55 0
-53 52 -55 0
-53 -52 55 0
54 52 69 0
54 -52 -69 0
-54 52 -69 0
-54 -52 69 0
56 55 58 0
56 -55 -58 0
-56 55 -58 0
-56 -55 58 0
57 55 72 0
57 -55 -72 0
-57 55 -72 0
-57 -55 72 0
59 58 61 0
59 -58 -61 0
-59 58 -61 0
-59 -58 61 0
60 58 75 0
60 -58 -75 0
-60 58 -75 0
-60 -58 75 0
62 61 64 0
62 -61 -64 0
-62 61 -64 0
-62 -61 64 0
63 61 78 0
63 -61 -78 0
-63 61 -78 0
-63 -61 78 0
65 64 67 0
65 -64 -67 0
-65 64 -67 0
-65 -64 67 0
66 64 81 0
66 -64 -81 0
-66 64 -81 0
-66 -64 81 0
68 67 84 0
68 -67 -84 0
-68 67 -84 0
-68 -67 84 0
70 69 72 0
70 -69 -72 0
-70 69 -72 0
-70 -69 72 0
71 69 86 0
71 -69 -86 0
-71 69 -86 0
-71 -69 86 0
73 72 75 0
73 -72 -75 0
-73 72 -75 0
-73 -72 75 0
74 72 88 0
74 -72 -88 0
-74 72 -88 0
-74 -72 88 0
76 75 78 0
76 -75 -78 0
-76 75 -78 0
-76 -75 78 0
77 75 90 0
77 -75 -90 0
-77 75 -90 0
-77 -75 90 0
79 78 81 0
79 -78 -81 0
-79 78 -81 0
-79 -78 81 0
80 78 92 0
80 -78 -92 0
-80 78 -92 0
-80 -78 92 0
82 81 84 0
82 -81 -84 0
-82 81 -84 0
-82 -81 84 0
83 81 94 0
83 -81 -94 0
-83 81 -94 0
-83 -81 94 0
85 84 96 0
85 -84 -96 0
-85 84 -96 0
-85 -84 96 0
87 86 88 0
87 -86 -88 0
-87 86 -88 0
-87 -86 88 0
89 88 90 0
89 -88 -90 0
-89 88 -90 0
-89 -88 90 0
91 90 92 0
91 -90 -92 0
-91 90 -92 0
-91 -90 92 0
93 92 94 0
93 -92 -94 0
-93 92 -94 0
-93 -92 94 0
95 94 96 0
95 -94 -96 0
-95 94 -96 0
-95 -94 96 0
