benchmarks/ising_models/2DLattices/SqrLattices/J_unif_-1,1/6x6_square_lattice_unif_frust
ISING
36
2 2 2 2 2 2 2 2 2 2 2 2 2 2 2 2 2 2 2 2 2 2 2 2 2 2 2 2 2 2 2 2 2 2 2 2
0 60 1.0 1
2 0 1
2 0 6
2 1 2
2 1 7
2 2 3
2 2 8
2 3 4
2 3 9
2 4 5
2 4 10
2 5 11
2 6 7
2 6 12
2 7 8
2 7 13
2 8 9
2 8 14
2 9 10
2 9 15
2 10 11
2 10 16
2 11 17
2 12 13
2 12 18
2 13 14
2 13 19
2 14 15
2 14 20
2 15 16
2 15 21
2 16 17
2 16 22
2 17 23
2 18 19
2 18 24
2 19 20
2 19 25
2 20 21
2 20 26
2 21 22
2 21 27
2 22 23
2 22 28
2 23 29
2 24 25
2 24 30
2 25 26
2 25 31
2 26 27
2 26 32
2 27 28
2 27 33
2 28 29
2 28 34
2 29 35
2 30 31
2 31 32
2 32 33
2 33 34
2 34 35

4
 0.5136192857022015 -0.5136192857022015
 -0.5136192857022015 0.5136192857022015
4
 0.6110731544718722 -0.6110731544718722
 -0.6110731544718722 0.6110731544718722
4
 0.6762091301908408 -0.6762091301908408
 -0.6762091301908408 0.6762091301908408
4
 0.34595352091434717 -0.34595352091434717
 -0.34595352091434717 0.34595352091434717
4
 -0.8840629989322142 0.8840629989322142
 0.8840629989322142 -0.8840629989322142
4
 -0.5809118563696332 0.5809118563696332
 0.5809118563696332 -0.5809118563696332
4
 0.3032775702405639 -0.3032775702405639
 -0.3032775702405639 0.3032775702405639
4
 0.6956090482361803 -0.6956090482361803
 -0.6956090482361803 0.6956090482361803
4
 0.49261885298185404 -0.49261885298185404
 -0.49261885298185404 0.49261885298185404
4
 0.9017020449268494 -0.9017020449268494
 -0.9017020449268494 0.9017020449268494
4
 0.9887871987231995 -0.9887871987231995
 -0.9887871987231995 0.9887871987231995
4
 0.8280156293519887 -0.8280156293519887
 -0.8280156293519887 0.8280156293519887
4
 -0.255089035056665 0.255089035056665
 0.255089035056665 -0.255089035056665
4
 -0.2999375570820513 0.2999375570820513
 0.2999375570820513 -0.2999375570820513
4
 -0.8408176589506855 0.8408176589506855
 0.8408176589506855 -0.8408176589506855
4
 -0.2520365744179889 0.2520365744179889
 0.2520365744179889 -0.2520365744179889
4
 -0.33589288836344644 0.33589288836344644
 0.33589288836344644 -0.33589288836344644
4
 0.2850904185067211 -0.2850904185067211
 -0.2850904185067211 0.2850904185067211
4
 0.7756603210385544 -0.7756603210385544
 -0.7756603210385544 0.7756603210385544
4
 0.5079569963333359 -0.5079569963333359
 -0.5079569963333359 0.5079569963333359
4
 0.9054224957302368 -0.9054224957302368
 -0.9054224957302368 0.9054224957302368
4
 -0.2976676378182721 0.2976676378182721
 0.2976676378182721 -0.2976676378182721
4
 -0.9184369053297776 0.9184369053297776
 0.9184369053297776 -0.9184369053297776
4
 0.7734607304814365 -0.7734607304814365
 -0.7734607304814365 0.7734607304814365
4
 0.43585865727035467 -0.43585865727035467
 -0.43585865727035467 0.43585865727035467
4
 -0.41898119168511516 0.41898119168511516
 0.41898119168511516 -0.41898119168511516
4
 0.801895800632878 -0.801895800632878
 -0.801895800632878 0.801895800632878
4
 -0.7940578948702686 0.7940578948702686
 0.7940578948702686 -0.7940578948702686
4
 -0.37117431536352097 0.37117431536352097
 0.37117431536352097 -0.37117431536352097
4
 -0.8099787771135711 0.8099787771135711
 0.8099787771135711 -0.8099787771135711
4
 0.8037987360757266 -0.8037987360757266
 -0.8037987360757266 0.8037987360757266
4
 -0.7647377885018485 0.7647377885018485
 0.7647377885018485 -0.7647377885018485
4
 -0.8117092526757572 0.8117092526757572
 0.8117092526757572 -0.8117092526757572
4
 0.6934337054432369 -0.6934337054432369
 -0.6934337054432369 0.6934337054432369
4
 0.878409433007532 -0.878409433007532
 -0.878409433007532 0.878409433007532
4
 0.09290530312597944 -0.09290530312597944
 -0.09290530312597944 0.09290530312597944
4
 0.2057930210378316 -0.2057930210378316
 -0.2057930210378316 0.2057930210378316
4
 0.7779694598101512 -0.7779694598101512
 -0.7779694598101512 0.7779694598101512
4
 0.6833741482746785 -0.6833741482746785
 -0.6833741482746785 0.6833741482746785
4
 -0.49789152909742507 0.49789152909742507
 0.49789152909742507 -0.49789152909742507
4
 -0.14900048903035978 0.14900048903035978
 0.14900048903035978 -0.14900048903035978
4
 0.07328827533855042 -0.07328827533855042
 -0.07328827533855042 0.07328827533855042
4
 -0.6126691997730684 0.6126691997730684
 0.6126691997730684 -0.6126691997730684
4
 0.9646315598791282 -0.9646315598791282
 -0.9646315598791282 0.9646315598791282
4
 0.32945543936787014 -0.32945543936787014
 -0.32945543936787014 0.32945543936787014
4
 0.9807324637897001 -0.9807324637897001
 -0.9807324637897001 0.9807324637897001
4
 -0.42594125234492286 0.42594125234492286
 0.42594125234492286 -0.42594125234492286
4
 -0.5740388877834199 0.5740388877834199
 0.5740388877834199 -0.5740388877834199
4
 -0.4499293653892482 0.4499293653892482
 0.4499293653892482 -0.4499293653892482
4
 -0.05852022375342947 0.05852022375342947
 0.05852022375342947 -0.05852022375342947
4
 -0.9654873226638248 0.9654873226638248
 0.9654873226638248 -0.9654873226638248
4
 0.7423912464143316 -0.7423912464143316
 -0.7423912464143316 0.7423912464143316
4
 0.2537272057699802 -0.2537272057699802
 -0.2537272057699802 0.2537272057699802
4
 -0.4309191729461428 0.4309191729461428
 0.4309191729461428 -0.4309191729461428
4
 0.24427929765123224 -0.24427929765123224
 -0.24427929765123224 0.24427929765123224
4
 -0.5015794360623276 0.5015794360623276
 0.5015794360623276 -0.5015794360623276
4
 0.5894535900043711 -0.5894535900043711
 -0.5894535900043711 0.5894535900043711
4
 0.495528118779738 -0.495528118779738
 -0.495528118779738 0.495528118779738
4
 0.03917227429576875 -0.03917227429576875
 -0.03917227429576875 0.03917227429576875
4
 0.08433939398288448 -0.08433939398288448
 -0.08433939398288448 0.08433939398288448
